examples/inputs/input30.dzn
n = 70;
l = 500;
s = 500;
r = 500;
f = 100;
forbidden = [| 22, 47
	| 1, 46
	| 9, 67
	| 20, 18
	| 30, 38
	| 44, 54
	| 34, 67
	| 12, 55
	| 46, 59
	| 70, 41
	| 33, 45
	| 9, 19
	| 42, 68
	| 34, 1
	| 31, 51
	| 2, 70
	| 66, 4
	| 31, 68
	| 45, 16
	| 53, 59
	| 57, 6
	| 22, 5
	| 34, 70
	| 60, 45
	| 5, 62
	| 21, 61
	| 32, 49
	| 54, 32
	| 41, 18
	| 4, 12
	| 62, 54
	| 38, 8
	| 17, 20
	| 30, 64
	| 48, 70
	| 64, 56
	| 16, 16
	| 19, 21
	| 38, 30
	| 53, 16
	| 48, 38
	| 64, 6
	| 62, 44
	| 55, 69
	| 35, 13
	| 26, 24
	| 49, 14
	| 14, 51
	| 66, 50
	| 34, 20
	| 53, 13
	| 35, 20
	| 27, 32
	| 58, 5
	| 59, 4
	| 7, 3
	| 48, 45
	| 48, 55
	| 15, 49
	| 6, 35
	| 48, 68
	| 33, 48
	| 14, 67
	| 62, 50
	| 7, 15
	| 37, 20
	| 37, 31
	| 30, 46
	| 53, 57
	| 19, 22
	| 38, 38
	| 1, 29
	| 63, 35
	| 2, 60
	| 7, 41
	| 13, 32
	| 63, 37
	| 66, 66
	| 14, 44
	| 67, 29
	| 68, 65
	| 48, 8
	| 60, 70
	| 45, 33
	| 53, 18
	| 4, 37
	| 35, 26
	| 37, 37
	| 8, 7
	| 70, 28
	| 65, 48
	| 16, 29
	| 2, 15
	| 34, 63
	| 7, 20
	| 52, 11
	| 23, 17
	| 21, 38
	| 45, 10
	| 26, 45
	|];