examples/inputs/input30.lp
#const n = 70.
#const l = 500.
#const s = 500.
#const r = 500.
#const f = 100.
val(22, 47, xxx).
val(1, 46, xxx).
val(9, 67, xxx).
val(20, 18, xxx).
val(30, 38, xxx).
val(44, 54, xxx).
val(34, 67, xxx).
val(12, 55, xxx).
val(46, 59, xxx).
val(70, 41, xxx).
val(33, 45, xxx).
val(9, 19, xxx).
val(42, 68, xxx).
val(34, 1, xxx).
val(31, 51, xxx).
val(2, 70, xxx).
val(66, 4, xxx).
val(31, 68, xxx).
val(45, 16, xxx).
val(53, 59, xxx).
val(57, 6, xxx).
val(22, 5, xxx).
val(34, 70, xxx).
val(60, 45, xxx).
val(5, 62, xxx).
val(21, 61, xxx).
val(32, 49, xxx).
val(54, 32, xxx).
val(41, 18, xxx).
val(4, 12, xxx).
val(62, 54, xxx).
val(38, 8, xxx).
val(17, 20, xxx).
val(30, 64, xxx).
val(48, 70, xxx).
val(64, 56, xxx).
val(16, 16, xxx).
val(19, 21, xxx).
val(38, 30, xxx).
val(53, 16, xxx).
val(48, 38, xxx).
val(64, 6, xxx).
val(62, 44, xxx).
val(55, 69, xxx).
val(35, 13, xxx).
val(26, 24, xxx).
val(49, 14, xxx).
val(14, 51, xxx).
val(66, 50, xxx).
val(34, 20, xxx).
val(53, 13, xxx).
val(35, 20, xxx).
val(27, 32, xxx).
val(58, 5, xxx).
val(59, 4, xxx).
val(7, 3, xxx).
val(48, 45, xxx).
val(48, 55, xxx).
val(15, 49, xxx).
val(6, 35, xxx).
val(48, 68, xxx).
val(33, 48, xxx).
val(14, 67, xxx).
val(62, 50, xxx).
val(7, 15, xxx).
val(37, 20, xxx).
val(37, 31, xxx).
val(30, 46, xxx).
val(53, 57, xxx).
val(19, 22, xxx).
val(38, 38, xxx).
val(1, 29, xxx).
val(63, 35, xxx).
val(2, 60, xxx).
val(7, 41, xxx).
val(13, 32, xxx).
val(63, 37, xxx).
val(66, 66, xxx).
val(14, 44, xxx).
val(67, 29, xxx).
val(68, 65, xxx).
val(48, 8, xxx).
val(60, 70, xxx).
val(45, 33, xxx).
val(53, 18, xxx).
val(4, 37, xxx).
val(35, 26, xxx).
val(37, 37, xxx).
val(8, 7, xxx).
val(70, 28, xxx).
val(65, 48, xxx).
val(16, 29, xxx).
val(2, 15, xxx).
val(34, 63, xxx).
val(7, 20, xxx).
val(52, 11, xxx).
val(23, 17, xxx).
val(21, 38, xxx).
val(45, 10, xxx).
val(26, 45, xxx).